DIR: 0.0, EFF: 0.8333333333333333, INT: 0.08333333333333333, OBJ: 0.08333333333333333
original problem has 10639 variables (10639 bin, 0 int, 0 impl, 0 cont) and 81 constraints
unknown variable <t_CL000014> in line 2 of solution file </mnt/lscratch/users/dferrario/Adaptive-Cutsel-MILP/TransformedSolutions/air03__trans__seed__1.sol>
  (further unknown variables are ignored)
1/1 feasible solution given by solution candidate storage, new primal bound 3.401600e+05

presolving:
   (0.1s) running MILP presolver
   (0.2s) MILP presolver (2 rounds): 0 aggregations, 2947 fixings, 0 bound changes
   (0.3s) probing: 51/7690 (0.7%) - 0 fixings, 0 aggregations, 0 implications, 0 bound changes
   (0.3s) probing aborted: 50/50 successive totally useless probings
presolving (1 rounds: 1 fast, 1 medium, 1 exhaustive):
 2949 deleted vars, 82 deleted constraints, 81 added constraints, 0 tightened bounds, 0 added holes, 0 changed sides, 0 changed coefficients
 0 implications, 80 cliques
presolved problem has 7690 variables (7690 bin, 0 int, 0 impl, 0 cont) and 80 constraints
     80 constraints of type <setppc>
transformed objective value is always integral (scale: 2)
Presolving Time: 0.34
transformed 1/1 original solutions to the transformed problem space

 time | node  | left  |LP iter|LP it/n|mem/heur|mdpt |vars |cons |rows |cuts |sepa|confs|strbr|  dualbound   | primalbound  |  gap   | compl. 
  0.6s|     1 |     0 |  1369 |     - |    59M |   0 |7690 |  80 |  80 |   0 |  0 |   0 |   0 | 3.388642e+05 | 3.401600e+05 |   0.38%| unknown
Computing relative interior point (time limit: 19.3953, iter limit: 13690) ...
  5.7s|     1 |     0 |  1415 |     - |  1775M |   0 |7691 |  80 |  88 |   8 |  1 |   0 |   0 | 3.388642e+05 | 3.401600e+05 |   0.38%| unknown
  5.7s|     1 |     0 |  1415 |     - |  1775M |   0 |7691 |  80 |  88 |   8 |  1 |   0 |   0 | 3.392174e+05 | 3.401600e+05 |   0.28%| unknown
  5.7s|     1 |     0 |  1454 |     - |  1775M |   0 |7691 |  80 |  95 |  15 |  2 |   0 |   0 | 3.394732e+05 | 3.401600e+05 |   0.20%| unknown
  5.8s|     1 |     0 |  1473 |     - |  1776M |   0 |7691 |  80 | 103 |  23 |  3 |   0 |   0 | 3.395079e+05 | 3.401600e+05 |   0.19%| unknown
  5.8s|     1 |     0 |  1518 |     - |  1776M |   0 |7691 |  80 | 109 |  29 |  4 |   0 |   0 | 3.396552e+05 | 3.401600e+05 |   0.15%| unknown
  5.9s|     1 |     0 |  1551 |     - |  1777M |   0 |7691 |  80 | 116 |  36 |  5 |   0 |   0 | 3.397160e+05 | 3.401600e+05 |   0.13%| unknown
  5.9s|     1 |     0 |  1558 |     - |  1777M |   0 |7691 |  80 | 119 |  39 |  6 |   0 |   0 | 3.397218e+05 | 3.401600e+05 |   0.13%| unknown
  6.0s|     1 |     0 |  1581 |     - |  1777M |   0 |7691 |  80 | 124 |  44 |  7 |   0 |   0 | 3.397371e+05 | 3.401600e+05 |   0.12%| unknown
  6.1s|     1 |     0 |  1597 |     - |  1777M |   0 |7691 |  80 | 128 |  48 |  8 |   0 |   0 | 3.397645e+05 | 3.401600e+05 |   0.12%| unknown
  6.1s|     1 |     0 |  1609 |     - |  1777M |   0 |7691 |  80 | 130 |  50 |  9 |   0 |   0 | 3.397770e+05 | 3.401600e+05 |   0.11%| unknown
  6.2s|     1 |     0 |  1666 |     - |  1777M |   0 |7691 |  80 | 136 |  56 | 10 |   0 |   0 | 3.398207e+05 | 3.401600e+05 |   0.10%| unknown
  6.2s|     1 |     0 |  1689 |     - |  1778M |   0 |7691 |  80 | 141 |  61 | 11 |   0 |   0 | 3.398699e+05 | 3.401600e+05 |   0.09%| unknown
  6.3s|     1 |     0 |  1706 |     - |  1778M |   0 |7691 |  80 | 146 |  66 | 12 |   0 |   0 | 3.399130e+05 | 3.401600e+05 |   0.07%| unknown
  6.3s|     1 |     0 |  1724 |     - |  1778M |   0 |7691 |  80 | 151 |  71 | 13 |   0 |   0 | 3.399275e+05 | 3.401600e+05 |   0.07%| unknown
 time | node  | left  |LP iter|LP it/n|mem/heur|mdpt |vars |cons |rows |cuts |sepa|confs|strbr|  dualbound   | primalbound  |  gap   | compl. 
  6.4s|     1 |     0 |  1752 |     - |  1779M |   0 |7691 |  80 | 154 |  74 | 14 |   0 |   0 | 3.399632e+05 | 3.401600e+05 |   0.06%| unknown
  6.5s|     1 |     0 |  1775 |     - |  1779M |   0 |7691 |  80 | 158 |  78 | 15 |   0 |   0 | 3.400018e+05 | 3.401600e+05 |   0.05%| unknown
  6.5s|     1 |     0 |  1800 |     - |  1779M |   0 |7691 |  80 | 161 |  81 | 16 |   0 |   0 | 3.400210e+05 | 3.401600e+05 |   0.04%| unknown
  6.6s|     1 |     0 |  1810 |     - |  1779M |   0 |7691 |  80 | 155 |  86 | 17 |   0 |   0 | 3.400640e+05 | 3.401600e+05 |   0.03%| unknown
  6.6s|     1 |     0 |  1825 |     - |  1780M |   0 |7691 |  80 | 156 |  87 | 18 |   0 |   0 | 3.400752e+05 | 3.401600e+05 |   0.02%| unknown
  6.7s|     1 |     0 |  1850 |     - |  1780M |   0 |7691 |  80 | 160 |  91 | 19 |   0 |   0 | 3.401054e+05 | 3.401600e+05 |   0.02%| unknown
  6.7s|     1 |     0 |  1853 |     - |  1780M |   0 |7691 |  80 | 165 |  96 | 20 |   0 |   0 | 3.401100e+05 | 3.401600e+05 |   0.01%| unknown
  6.8s|     1 |     0 |  1893 |     - |  1780M |   0 |7691 |  80 | 166 |  97 | 21 |   0 |   0 | 3.401527e+05 | 3.401600e+05 |   0.00%| unknown
  6.8s|     1 |     0 |  1902 |     - |  1780M |   0 |7691 |  80 | 167 |  98 | 22 |   0 |   0 | 3.401550e+05 | 3.401600e+05 |   0.00%| unknown
  6.9s|     1 |     0 |  1904 |     - |  1780M |   0 |7691 |  80 | 157 | 102 | 23 |   0 |   0 | 3.401560e+05 | 3.401600e+05 |   0.00%| unknown
  6.9s|     1 |     0 |  1907 |     - |  1780M |   0 |7691 |  80 | 158 | 103 | 24 |   0 |   0 | 3.401600e+05 | 3.401600e+05 |   0.00%| unknown
  6.9s|     1 |     0 |  1907 |     - |  1780M |   0 |7691 |  80 | 158 | 103 | 24 |   0 |   0 | 3.401600e+05 | 3.401600e+05 |   0.00%| unknown

SCIP Status        : problem is solved [optimal solution found]
Solving Time (sec) : 6.94
Solving Nodes      : 1
Primal Bound       : +3.40160000000000e+05 (1 solutions)
Dual Bound         : +3.40160000000000e+05
Gap                : 0.00 %
